This is Ipopt version 3.14.16, running with linear solver MUMPS 5.7.3.

Number of nonzeros in equality constraint Jacobian...:        0
Number of nonzeros in inequality constraint Jacobian.:      289
Number of nonzeros in Lagrangian Hessian.............:        0

Total number of variables............................:       17
                     variables with only lower bounds:        0
                variables with lower and upper bounds:       17
                     variables with only upper bounds:        0
Total number of equality constraints.................:        0
Total number of inequality constraints...............:       17
        inequality constraints with only lower bounds:        0
   inequality constraints with lower and upper bounds:        0
        inequality constraints with only upper bounds:       17

iter    objective    inf_pr   inf_du lg(mu)  ||d||  lg(rg) alpha_du alpha_pr  ls
   0  3.4882214e-01 1.47e-01 9.32e-01   0.0 0.00e+00    -  0.00e+00 0.00e+00   0
   1  2.8791120e-01 4.53e-03 5.29e-01  -6.4 6.53e-01    -  5.01e-01 9.71e-01h  1
   2  2.7038956e-01 0.00e+00 3.23e-02  -2.0 3.24e-02    -  9.88e-01 1.00e+00f  1
   3  1.5592775e-01 0.00e+00 1.02e-01  -2.8 2.20e+00    -  9.49e-01 1.00e+00f  1
   4  6.7259857e-02 0.00e+00 2.62e-02  -3.5 2.40e+00    -  1.00e+00 9.97e-01h  1
   5  4.8740314e-02 0.00e+00 1.07e-02  -4.7 6.97e-01    -  1.00e+00 1.00e+00h  1
   6  4.4731314e-02 0.00e+00 4.46e-04  -5.5 1.62e-01    -  1.00e+00 9.99e-01h  1

Number of Iterations....: 6

                                   (scaled)                 (unscaled)
Objective...............:   4.4731313948465079e-02    4.4731313948465079e-02
Dual infeasibility......:   4.4612721871225143e-04    4.4612721871225143e-04
Constraint violation....:   0.0000000000000000e+00    0.0000000000000000e+00
Variable bound violation:   0.0000000000000000e+00    0.0000000000000000e+00
Complementarity.........:   2.5570562682352275e-05    2.5570562682352275e-05
Overall NLP error.......:   4.4612721871225143e-04    4.4612721871225143e-04


Number of objective function evaluations             = 7
Number of objective gradient evaluations             = 7
Number of equality constraint evaluations            = 0
Number of inequality constraint evaluations          = 7
Number of equality constraint Jacobian evaluations   = 0
Number of inequality constraint Jacobian evaluations = 7
Number of Lagrangian Hessian evaluations             = 0
Total seconds in IPOPT                               = 7.062

EXIT: Optimal Solution Found.
